; ./seahorn/./sv_comp_flat_small/ldv-linux-3.4-simple/32_1_cilled_true-unreach-call_ok_nondet_linux-3.4-32_1-drivers--pps--clients--pps-ktimer.ko-ldv_main0_sequence_infinite_withcheck_stateful.cil.out.c.flat_000.smt2
(set-logic HORN)

(declare-fun |main_1| ( Int ) Bool)

(assert
  (forall ( (v_0 Int) ) 
    (=>
      (and
        (and true (= 0 v_0))
      )
      (main_1 v_0)
    )
  )
)
(assert
  (forall ( (A Int) (B Int) (C Int) (D Int) (E Int) (F Int) (G Int) (H Int) (I Bool) (J Int) (K Int) (L Int) (M Int) (N Int) (O Bool) (P Bool) (Q Bool) (R Bool) (S Bool) (T Bool) (U Bool) (V Bool) (v_22 Int) (v_23 Int) ) 
    (=>
      (and
        (main_1 v_22)
        (and (= 0 v_22)
     (= M K)
     (= L J)
     (or (not O) (not P) (not R))
     (or (not I) (not T) (not Q))
     (or (not S) (and T Q))
     (or (not Q) (= I (= H 0)))
     (or (not Q) (= G F))
     (or (not Q) (= F (+ 336 E)))
     (or (not Q) (= E D))
     (or (not Q) (= C (+ B A)))
     (or (not Q) (and P R))
     (or (not U) (and V S))
     (= U true)
     (= O (= N 0))
     (= 1 v_23))
      )
      (main_1 v_23)
    )
  )
)
(assert
  (forall ( (A Int) (B Int) (C Int) (D Int) (E Int) (F Int) (G Int) (H Int) (I Int) (J Int) (K Int) (L Int) (M Bool) (N Int) (O Int) (P Int) (Q Int) (R Int) (S Bool) (T Bool) (U Bool) (V Bool) (W Bool) (X Bool) (Y Bool) (Z Bool) (A1 Bool) (B1 Bool) (C1 Bool) (D1 Bool) (E1 Bool) (v_31 Int) (v_32 Int) ) 
    (=>
      (and
        (main_1 v_31)
        (and (= 0 v_31)
     (= Q O)
     (= P N)
     (or (not S) (not T) (not V))
     (or (not A1) (and C1 Y) (and B1 W))
     (or S (not Z) (not T))
     (or (not X) M (not U))
     (or (not W) (= D C))
     (or (not W) (= C (+ 336 B)))
     (or (not W) (= B A))
     (or (not W) (and X U))
     (or (not U) (= M (= L 0)))
     (or (not U) (= I H))
     (or (not U) (= G (+ F E)))
     (or (not U) (= K J))
     (or (not U) (= J (+ 336 I)))
     (or (not U) (and T V))
     (or (not Y) (and Z T))
     (or (not D1) (and E1 A1))
     (not A1)
     (= D1 true)
     (= S (= R 0))
     (= 2 v_32))
      )
      (main_1 v_32)
    )
  )
)
(assert
  (forall ( (A Int) (B Bool) (C Bool) (D Bool) (E Bool) (v_5 Int) (v_6 Int) ) 
    (=>
      (and
        (main_1 v_5)
        (and (= 1 v_5)
     (or (not B) (not C) (not E))
     (or (not D) (and C E))
     (= D true)
     (= B (= A 0))
     (= 1 v_6))
      )
      (main_1 v_6)
    )
  )
)
(assert
  (forall ( (A Int) (B Int) (C Int) (D Int) (E Int) (F Bool) (G Bool) (H Bool) (I Bool) (J Bool) (K Bool) (L Bool) (M Bool) (N Bool) (O Bool) (v_15 Int) (v_16 Int) ) 
    (=>
      (and
        (main_1 v_15)
        (and (= 1 v_15)
     (or F (not N) (not G))
     (or (not K) (and I L))
     (or (not I) (and H J))
     (or (not H) (= B A))
     (or (not H) (= D C))
     (or (not H) (= C (+ 336 B)))
     (or (not H) (and M O))
     (or (not M) (and N G))
     (= K true)
     (not I)
     (= F (= E 0))
     (= 2 v_16))
      )
      (main_1 v_16)
    )
  )
)
(assert
  (forall ( (v_0 Int) ) 
    (=>
      (and
        (main_1 v_0)
        (= 2 v_0)
      )
      false
    )
  )
)

(check-sat)
(exit)
